NAME : si175.26136.tour
COMMENT : Cost = 0_26136
COMMENT : Found by LKH [Keld Helsgaun] Thu Nov 16 16:24:41 2017
TYPE : TOUR
DIMENSION : 194
TOUR_SECTION
1
2
194
4
32
119
31
30
29
28
27
26
25
23
65
24
63
22
21
20
192
50
51
49
48
47
84
46
45
83
44
43
42
82
97
98
81
38
80
79
78
96
112
168
172
173
174
136
137
138
139
142
141
135
143
144
145
146
140
121
133
132
131
130
129
128
127
126
125
124
123
122
134
120
118
175
151
150
149
111
110
152
163
164
153
154
155
165
117
166
167
161
156
116
157
115
158
162
169
170
171
160
113
114
159
147
148
85
99
100
101
102
86
87
88
103
104
89
90
105
106
91
92
93
107
94
108
95
109
77
76
75
74
73
72
71
70
69
68
66
67
64
62
61
59
60
58
56
57
55
54
52
53
193
34
33
36
35
37
39
40
41
191
19
190
18
189
5
188
17
187
3
186
8
185
15
184
7
183
13
182
11
181
9
180
16
179
6
178
14
177
12
176
10
-1
EOF
